
(set-logic ALL) 

(declare-datatype MyList ((Nil) (Cons (head Real) (tail MyList)) )) 
(declare-fun l0 () MyList) 
(declare-fun l1 () MyList) 
(declare-fun l2 () MyList) 
(declare-fun l3 () MyList) 
(declare-fun i0 () Real) 
(declare-fun i1 () Real) 
(assert (is-Nil Nil) )
(assert (not (is-Nil Nil)) )
(assert (is-Cons l0) )
(assert (or (= l0 l0) (is-Cons Nil) (= l2 Nil)) )
(assert (or (is-Nil Nil) (is-Cons Nil) (= l2 Nil) (is-Nil Nil)) )
(assert (= l0 Nil) )
(assert (= l0 Nil) )
(assert (or (= l0 Nil) (is-Nil Nil)) )
(check-sat)
